10
1 4
2 5
3 2
4 1
5 7
6 3
7 9
8 1
9 2
10 4
31
0 1 77
1 0 77
0 2 72
2 0 72
0 3 55
3 0 55
0 4 18
4 0 18
0 5 53
5 0 53
0 6 59
6 0 59
0 7 100
7 0 100
0 8 42
8 0 42
0 9 34
9 0 34
0 10 56
10 0 56
1 2 88
1 3 30
1 8 72
2 5 49
2 6 36
3 5 26
4 9 72
5 6 9
7 9 6
8 9 47
8 10 5
